&CONTROL
  calculation = 'scf'
  prefix = 'MoTe2'
  outdir = './outdir/'
  pseudo_dir = './pseudo'
  verbosity = 'high'
/

&SYSTEM
  ibrav = 0
  nat = 6
  ntyp = 2
  ecutwfc = 60.
  ecutrho= 240.
/

&ELECTRONS
  conv_thr = 1.D-8
  mixing_beta = 0.6
/

CELL_PARAMETERS {angstrom}
  3.568569264500000   0.000000000000000   0.000000000000000
 -1.784284632200000   3.090471638200000   0.000000000000000
  0.000000000000001   0.000000000000002  15.074202282200002

ATOMIC_SPECIES
  Mo   95.96000  Mo.upf
  Te  127.60000  Te.upf

ATOMIC_POSITIONS {crystal}
Te   0.333333333333333   0.666666666666667   0.870166776897307
Te   0.333333333333333   0.666666666666667   0.629833223102693
Te   0.666666666666667   0.333333333333333   0.370166776897307
Te   0.666666666666667   0.333333333333333   0.129833223102693
Mo   0.333333333333333   0.666666666666667   0.250000000003317
Mo   0.666666666666667   0.333333333333333   0.750000000003317

K_POINTS {automatic}
3 3 3 0 0 0  
